(set-logic QF_S)
(declare-fun var0 () String)
(assert (str.in.re var0 (re.++ (re.+ (re.union (str.to.re "000") (str.to.re "1"))) (re.++ (re.* (re.+ (str.to.re "222"))) (re.++ (re.* (re.+ (str.to.re "33"))) (re.++ (re.union (re.+ (str.to.re "444")) (re.+ (str.to.re "55"))) (re.++ (re.* (re.union (str.to.re "66") (str.to.re "7"))) (re.++ (re.* (re.+ (str.to.re "88"))) (re.++ (re.* (re.+ (str.to.re "999"))) (re.++ (re.* (re.* (str.to.re "a"))) (re.++ (re.+ (re.union (str.to.re "bbb") (str.to.re "c"))) (re.++ (re.union (re.union (str.to.re "dd") (str.to.re "e")) (re.union (str.to.re "fff") (str.to.re "g"))) (re.++ (re.union (re.+ (str.to.re "hhh")) (re.+ (str.to.re "ii"))) (re.++ (re.* (re.union (str.to.re "jj") (str.to.re "kkk"))) (re.++ (re.union (re.+ (str.to.re "lll")) (re.+ (str.to.re "m"))) (re.++ (re.+ (re.union (str.to.re "nnn") (str.to.re "o"))) (re.++ (re.+ (re.+ (str.to.re "pp"))) (re.++ (re.* (re.+ (str.to.re "q"))) (re.++ (re.+ (re.union (str.to.re "r") (str.to.re "ss"))) (re.++ (re.union (re.* (str.to.re "ttt")) (re.* (str.to.re "uuu"))) (re.++ (re.+ (re.union (str.to.re "vv") (str.to.re "w"))) (re.++ (re.union (re.* (str.to.re "xx")) (re.* (str.to.re "yy"))) (re.++ (re.* (re.* (str.to.re "zz"))) (re.++ (re.+ (re.+ (str.to.re "A"))) (re.++ (re.+ (re.* (str.to.re "BB"))) (re.++ (re.* (re.+ (str.to.re "CCC"))) (re.++ (re.* (re.+ (str.to.re "DDD"))) (re.++ (re.union (re.+ (str.to.re "E")) (re.+ (str.to.re "FFF"))) (re.++ (re.+ (re.union (str.to.re "GGG") (str.to.re "HH"))) (re.++ (re.+ (re.* (str.to.re "II"))) (re.++ (re.union (re.* (str.to.re "JJJ")) (re.* (str.to.re "K"))) (re.++ (re.* (re.union (str.to.re "LLL") (str.to.re "MM"))) (re.++ (re.union (re.* (str.to.re "NNN")) (re.* (str.to.re "O"))) (re.++ (re.union (re.* (str.to.re "PPP")) (re.* (str.to.re "QQQ"))) (re.++ (re.union (re.union (str.to.re "R") (str.to.re "S")) (re.union (str.to.re "TTT") (str.to.re "U"))) (re.++ (re.+ (re.+ (str.to.re "VVV"))) (re.++ (re.+ (re.+ (str.to.re "WWW"))) (re.++ (re.union (re.union (str.to.re "XX") (str.to.re "YYY")) (re.union (str.to.re "ZZZ") (str.to.re "!"))) (re.++ (re.+ (re.* (str.to.re """"""""))) (re.++ (re.+ (re.* (str.to.re "##"))) (re.++ (re.* (re.union (str.to.re "$") (str.to.re "%"))) (re.++ (re.+ (re.union (str.to.re "&&&") (str.to.re "'"))) (re.++ (re.* (re.* (str.to.re "((("))) (re.++ (re.union (re.* (str.to.re ")))")) (re.* (str.to.re "*"))) (re.++ (re.union (re.* (str.to.re "+")) (re.* (str.to.re ",,"))) (re.++ (re.+ (re.union (str.to.re "--") (str.to.re ".."))) (re.++ (re.* (re.* (str.to.re "/"))) (re.++ (re.+ (re.union (str.to.re ":") (str.to.re ";"))) (re.++ (re.* (re.+ (str.to.re "<"))) (re.++ (re.* (re.* (str.to.re "=="))) (re.++ (re.union (re.union (str.to.re ">") (str.to.re "?")) (re.union (str.to.re "@@") (str.to.re "[[["))) (re.++ (re.+ (re.union (str.to.re "\\\\\\") (str.to.re "]"))) (re.++ (re.* (re.union (str.to.re "^^^") (str.to.re "___"))) (re.++ (re.+ (re.* (str.to.re "```"))) (re.++ (re.* (re.* (str.to.re "{{"))) (re.++ (re.* (re.union (str.to.re "|") (str.to.re "}}}"))) (re.++ (re.union (re.union (str.to.re "~~") (str.to.re "000")) (re.union (str.to.re "111") (str.to.re "2"))) (re.++ (re.* (re.* (str.to.re "33"))) (re.++ (re.+ (re.* (str.to.re "4"))) (re.++ (re.union (re.* (str.to.re "55")) (re.* (str.to.re "6"))) (re.++ (re.* (re.union (str.to.re "777") (str.to.re "8"))) (re.++ (re.+ (re.* (str.to.re "999"))) (re.++ (re.* (re.+ (str.to.re "aa"))) (re.++ (re.+ (re.union (str.to.re "bb") (str.to.re "cc"))) (re.++ (re.union (re.+ (str.to.re "d")) (re.+ (str.to.re "ee"))) (re.++ (re.union (re.+ (str.to.re "fff")) (re.+ (str.to.re "g"))) (re.++ (re.+ (re.union (str.to.re "hhh") (str.to.re "i"))) (re.++ (re.* (re.* (str.to.re "jjj"))) (re.++ (re.+ (re.* (str.to.re "k"))) (re.++ (re.+ (re.* (str.to.re "ll"))) (re.++ (re.union (re.* (str.to.re "mm")) (re.* (str.to.re "nnn"))) (re.++ (re.union (re.* (str.to.re "o")) (re.* (str.to.re "p"))) (re.++ (re.+ (re.+ (str.to.re "qqq"))) (re.++ (re.union (re.union (str.to.re "rr") (str.to.re "sss")) (re.union (str.to.re "t") (str.to.re "u"))) (re.++ (re.* (re.* (str.to.re "vvv"))) (re.++ (re.* (re.union (str.to.re "ww") (str.to.re "x"))) (re.++ (re.union (re.* (str.to.re "y")) (re.* (str.to.re "zz"))) (re.++ (re.union (re.+ (str.to.re "AA")) (re.+ (str.to.re "BBB"))) (re.++ (re.union (re.+ (str.to.re "CCC")) (re.+ (str.to.re "DDD"))) (re.++ (re.* (re.* (str.to.re "EE"))) (re.++ (re.* (re.union (str.to.re "FF") (str.to.re "GG"))) (re.++ (re.* (re.+ (str.to.re "H"))) (re.++ (re.union (re.* (str.to.re "II")) (re.* (str.to.re "JJ"))) (re.++ (re.* (re.union (str.to.re "KKK") (str.to.re "LL"))) (re.++ (re.+ (re.union (str.to.re "MM") (str.to.re "NNN"))) (re.++ (re.+ (re.+ (str.to.re "OO"))) (re.++ (re.union (re.* (str.to.re "P")) (re.* (str.to.re "QQ"))) (re.++ (re.union (re.+ (str.to.re "RR")) (re.+ (str.to.re "SSS"))) (re.++ (re.* (re.* (str.to.re "TT"))) (re.++ (re.* (re.union (str.to.re "U") (str.to.re "VV"))) (re.++ (re.union (re.+ (str.to.re "WWW")) (re.+ (str.to.re "X"))) (re.++ (re.* (re.union (str.to.re "YYY") (str.to.re "Z"))) (re.++ (re.+ (re.union (str.to.re "!!!") (str.to.re """"))) (re.++ (re.+ (re.* (str.to.re "#"))) (re.++ (re.union (re.+ (str.to.re "$$$")) (re.+ (str.to.re "%%%"))) (re.++ (re.* (re.union (str.to.re "&") (str.to.re "'"))) (re.++ (re.union (re.+ (str.to.re "(((")) (re.+ (str.to.re ")"))) (re.++ (re.union (re.* (str.to.re "**")) (re.* (str.to.re "+"))) (re.++ (re.union (re.* (str.to.re ",")) (re.* (str.to.re "-"))) (re.++ (re.+ (re.union (str.to.re ".") (str.to.re "/"))) (re.* (re.* (str.to.re "::")))))))))))))))))))))))))))))))))))))))))))))))))))))))))))))))))))))))))))))))))))))))))))))))))))))))
(check-sat)